94 50 79 59 51 77 49 82 48 2 13 32 21 78 24 8 1 65 26 18 52 37 20 46 90 0 61 70 80 14 74 99 67 85 19 16 27 43 25 73 58 53 23 39 57 34 89 92 10 63 36 93 97 3 31 56 91 5 15 86 98 22 96 62 4 9 7 95 88 44 17 29 55 41 83 66 72 11 42 71 76 40 87 38 54 35 60 84 64 6 47 81 28 69 12 45 30 33 68 75 

